data/lp_files/q3/65_4.lp
\ Model foo
\ LP format - for model browsing. Use MPS format to capture full model detail.
Minimize
  z
Subject To
 allocateEach[1]: x[1,1] + x[2,1] + x[3,1] + x[4,1] = 1
 allocateEach[2]: x[1,2] + x[2,2] + x[3,2] + x[4,2] = 1
 allocateEach[3]: x[1,3] + x[2,3] + x[3,3] + x[4,3] = 1
 allocateEach[4]: x[1,4] + x[2,4] + x[3,4] + x[4,4] = 1
 allocateEach[5]: x[1,5] + x[2,5] + x[3,5] + x[4,5] = 1
 allocateAllCash: cashProportion[1] + cashProportion[2] + cashProportion[3]
   + cashProportion[4] = 1
 findWorstP[1,2]: z + 0.1107959581634462 cashProportion[1]
   - 0.1107959581634462 cashProportion[2] + 0.0473320333274242 x[1,1]
   + 0.4049370678957632 x[1,2] + 0.209360042545648 x[1,3]
   + 0.144965431661053 x[1,4] + 0.0826094664066655 x[1,5]
   - 0.0473320333274242 x[2,1] - 0.4049370678957632 x[2,2]
   - 0.209360042545648 x[2,3] - 0.144965431661053 x[2,4]
   - 0.0826094664066655 x[2,5] >= 0
 findWorstP[1,3]: z + 0.1107959581634462 cashProportion[1]
   - 0.1107959581634462 cashProportion[3] + 0.0473320333274242 x[1,1]
   + 0.4049370678957632 x[1,2] + 0.209360042545648 x[1,3]
   + 0.144965431661053 x[1,4] + 0.0826094664066655 x[1,5]
   - 0.0473320333274242 x[3,1] - 0.4049370678957632 x[3,2]
   - 0.209360042545648 x[3,3] - 0.144965431661053 x[3,4]
   - 0.0826094664066655 x[3,5] >= 0
 findWorstP[1,4]: z + 0.1107959581634462 cashProportion[1]
   - 0.1107959581634462 cashProportion[4] + 0.0473320333274242 x[1,1]
   + 0.4049370678957632 x[1,2] + 0.209360042545648 x[1,3]
   + 0.144965431661053 x[1,4] + 0.0826094664066655 x[1,5]
   - 0.0473320333274242 x[4,1] - 0.4049370678957632 x[4,2]
   - 0.209360042545648 x[4,3] - 0.144965431661053 x[4,4]
   - 0.0826094664066655 x[4,5] >= 0
 findWorstP[2,1]: z - 0.0913075237399562 cashProportion[1]
   + 0.0913075237399562 cashProportion[2] - 0.3535427319211102 x[1,1]
   - 0.0378013148283418 x[1,2] - 0.189408327246165 x[1,3]
   - 0.0985756026296567 x[1,4] - 0.2293644996347699 x[1,5]
   + 0.3535427319211102 x[2,1] + 0.0378013148283418 x[2,2]
   + 0.189408327246165 x[2,3] + 0.0985756026296567 x[2,4]
   + 0.2293644996347699 x[2,5] >= 0
 findWorstP[2,3]: z + 0.0913075237399562 cashProportion[2]
   - 0.0913075237399562 cashProportion[3] + 0.3535427319211102 x[2,1]
   + 0.0378013148283418 x[2,2] + 0.189408327246165 x[2,3]
   + 0.0985756026296567 x[2,4] + 0.2293644996347699 x[2,5]
   - 0.3535427319211102 x[3,1] - 0.0378013148283418 x[3,2]
   - 0.189408327246165 x[3,3] - 0.0985756026296567 x[3,4]
   - 0.2293644996347699 x[3,5] >= 0
 findWorstP[2,4]: z + 0.0913075237399562 cashProportion[2]
   - 0.0913075237399562 cashProportion[4] + 0.3535427319211102 x[2,1]
   + 0.0378013148283418 x[2,2] + 0.189408327246165 x[2,3]
   + 0.0985756026296567 x[2,4] + 0.2293644996347699 x[2,5]
   - 0.3535427319211102 x[4,1] - 0.0378013148283418 x[4,2]
   - 0.189408327246165 x[4,3] - 0.0985756026296567 x[4,4]
   - 0.2293644996347699 x[4,5] >= 0
 findWorstP[3,1]: z - 0.0940273807732812 cashProportion[1]
   + 0.0940273807732812 cashProportion[3] - 0.0310290356551828 x[1,1]
   - 0.1727471039566722 x[1,2] - 0.2471791785768016 x[1,3]
   - 0.2392808785918459 x[1,4] - 0.2157364224462164 x[1,5]
   + 0.0310290356551828 x[3,1] + 0.1727471039566722 x[3,2]
   + 0.2471791785768016 x[3,3] + 0.2392808785918459 x[3,4]
   + 0.2157364224462164 x[3,5] >= 0
 findWorstP[3,2]: z - 0.0940273807732812 cashProportion[2]
   + 0.0940273807732812 cashProportion[3] - 0.0310290356551828 x[2,1]
   - 0.1727471039566722 x[2,2] - 0.2471791785768016 x[2,3]
   - 0.2392808785918459 x[2,4] - 0.2157364224462164 x[2,5]
   + 0.0310290356551828 x[3,1] + 0.1727471039566722 x[3,2]
   + 0.2471791785768016 x[3,3] + 0.2392808785918459 x[3,4]
   + 0.2157364224462164 x[3,5] >= 0
 findWorstP[3,4]: z + 0.0940273807732812 cashProportion[3]
   - 0.0940273807732812 cashProportion[4] + 0.0310290356551828 x[3,1]
   + 0.1727471039566722 x[3,2] + 0.2471791785768016 x[3,3]
   + 0.2392808785918459 x[3,4] + 0.2157364224462164 x[3,5]
   - 0.0310290356551828 x[4,1] - 0.1727471039566722 x[4,2]
   - 0.2471791785768016 x[4,3] - 0.2392808785918459 x[4,4]
   - 0.2157364224462164 x[4,5] >= 0
 findWorstP[4,1]: z - 0.0868296749096971 cashProportion[1]
   + 0.0868296749096971 cashProportion[4] - 0.00774520700194498 x[1,1]
   - 0.1286815782161712 x[1,2] - 0.280112531258683 x[1,3]
   - 0.2473603778827452 x[1,4] - 0.2492706307307585 x[1,5]
   + 0.00774520700194498 x[4,1] + 0.1286815782161712 x[4,2]
   + 0.280112531258683 x[4,3] + 0.2473603778827452 x[4,4]
   + 0.2492706307307585 x[4,5] >= 0
 findWorstP[4,2]: z - 0.0868296749096971 cashProportion[2]
   + 0.0868296749096971 cashProportion[4] - 0.00774520700194498 x[2,1]
   - 0.1286815782161712 x[2,2] - 0.280112531258683 x[2,3]
   - 0.2473603778827452 x[2,4] - 0.2492706307307585 x[2,5]
   + 0.00774520700194498 x[4,1] + 0.1286815782161712 x[4,2]
   + 0.280112531258683 x[4,3] + 0.2473603778827452 x[4,4]
   + 0.2492706307307585 x[4,5] >= 0
 findWorstP[4,3]: z - 0.0868296749096971 cashProportion[3]
   + 0.0868296749096971 cashProportion[4] - 0.00774520700194498 x[3,1]
   - 0.1286815782161712 x[3,2] - 0.280112531258683 x[3,3]
   - 0.2473603778827452 x[3,4] - 0.2492706307307585 x[3,5]
   + 0.00774520700194498 x[4,1] + 0.1286815782161712 x[4,2]
   + 0.280112531258683 x[4,3] + 0.2473603778827452 x[4,4]
   + 0.2492706307307585 x[4,5] >= 0
Bounds
 z <= 1
 -infinity <= cashProportion[1] <= 1
 -infinity <= cashProportion[2] <= 1
 -infinity <= cashProportion[3] <= 1
 -infinity <= cashProportion[4] <= 1
Binaries
 x[1,1] x[1,2] x[1,3] x[1,4] x[1,5] x[2,1] x[2,2] x[2,3] x[2,4] x[2,5]
 x[3,1] x[3,2] x[3,3] x[3,4] x[3,5] x[4,1] x[4,2] x[4,3] x[4,4] x[4,5]
End
