data/mps_files/pEFS/65_4.mps
NAME foo
ROWS
 N  OBJ
 E  allocateEach[1]
 E  allocateEach[2]
 E  allocateEach[3]
 E  allocateEach[4]
 E  allocateEach[5]
 E  allocateAllCash
 G  findWorstP[1,2]
 G  findWorstP[1,3]
 G  findWorstP[1,4]
 G  findWorstP[2,1]
 G  findWorstP[2,3]
 G  findWorstP[2,4]
 G  findWorstP[3,1]
 G  findWorstP[3,2]
 G  findWorstP[3,4]
 G  findWorstP[4,1]
 G  findWorstP[4,2]
 G  findWorstP[4,3]
COLUMNS
    z         OBJ       1
    z         findWorstP[1,2]  1
    z         findWorstP[1,3]  1
    z         findWorstP[1,4]  1
    z         findWorstP[2,1]  1
    z         findWorstP[2,3]  1
    z         findWorstP[2,4]  1
    z         findWorstP[3,1]  1
    z         findWorstP[3,2]  1
    z         findWorstP[3,4]  1
    z         findWorstP[4,1]  1
    z         findWorstP[4,2]  1
    z         findWorstP[4,3]  1
    cashProportion[1]  allocateAllCash  1
    cashProportion[1]  findWorstP[1,2]  1.1079595816344621e-01
    cashProportion[1]  findWorstP[1,3]  1.1079595816344621e-01
    cashProportion[1]  findWorstP[1,4]  1.1079595816344621e-01
    cashProportion[1]  findWorstP[2,1]  -9.1307523739956167e-02
    cashProportion[1]  findWorstP[3,1]  -9.4027380773281183e-02
    cashProportion[1]  findWorstP[4,1]  -8.6829674909697133e-02
    cashProportion[2]  allocateAllCash  1
    cashProportion[2]  findWorstP[1,2]  -1.1079595816344621e-01
    cashProportion[2]  findWorstP[2,1]  9.1307523739956167e-02
    cashProportion[2]  findWorstP[2,3]  9.1307523739956167e-02
    cashProportion[2]  findWorstP[2,4]  9.1307523739956167e-02
    cashProportion[2]  findWorstP[3,2]  -9.4027380773281183e-02
    cashProportion[2]  findWorstP[4,2]  -8.6829674909697133e-02
    cashProportion[3]  allocateAllCash  1
    cashProportion[3]  findWorstP[1,3]  -1.1079595816344621e-01
    cashProportion[3]  findWorstP[2,3]  -9.1307523739956167e-02
    cashProportion[3]  findWorstP[3,1]  9.4027380773281183e-02
    cashProportion[3]  findWorstP[3,2]  9.4027380773281183e-02
    cashProportion[3]  findWorstP[3,4]  9.4027380773281183e-02
    cashProportion[3]  findWorstP[4,3]  -8.6829674909697133e-02
    cashProportion[4]  allocateAllCash  1
    cashProportion[4]  findWorstP[1,4]  -1.1079595816344621e-01
    cashProportion[4]  findWorstP[2,4]  -9.1307523739956167e-02
    cashProportion[4]  findWorstP[3,4]  -9.4027380773281183e-02
    cashProportion[4]  findWorstP[4,1]  8.6829674909697133e-02
    cashProportion[4]  findWorstP[4,2]  8.6829674909697133e-02
    cashProportion[4]  findWorstP[4,3]  8.6829674909697133e-02
    MARKER    'MARKER'                 'INTORG'
    x[1,1]    allocateEach[1]  1
    x[1,1]    findWorstP[1,2]  4.7332033327424222e-02
    x[1,1]    findWorstP[1,3]  4.7332033327424222e-02
    x[1,1]    findWorstP[1,4]  4.7332033327424222e-02
    x[1,1]    findWorstP[2,1]  -3.5354273192111024e-01
    x[1,1]    findWorstP[3,1]  -3.1029035655182793e-02
    x[1,1]    findWorstP[4,1]  -7.7452070019449846e-03
    x[1,2]    allocateEach[2]  1
    x[1,2]    findWorstP[1,2]  4.0493706789576323e-01
    x[1,2]    findWorstP[1,3]  4.0493706789576323e-01
    x[1,2]    findWorstP[1,4]  4.0493706789576323e-01
    x[1,2]    findWorstP[2,1]  -3.7801314828341849e-02
    x[1,2]    findWorstP[3,1]  -1.7274710395667217e-01
    x[1,2]    findWorstP[4,1]  -1.2868157821617116e-01
    x[1,3]    allocateEach[3]  1
    x[1,3]    findWorstP[1,2]  2.0936004254564797e-01
    x[1,3]    findWorstP[1,3]  2.0936004254564797e-01
    x[1,3]    findWorstP[1,4]  2.0936004254564797e-01
    x[1,3]    findWorstP[2,1]  -1.8940832724616505e-01
    x[1,3]    findWorstP[3,1]  -2.4717917857680158e-01
    x[1,3]    findWorstP[4,1]  -2.8011253125868296e-01
    x[1,4]    allocateEach[4]  1
    x[1,4]    findWorstP[1,2]  1.4496543166105302e-01
    x[1,4]    findWorstP[1,3]  1.4496543166105302e-01
    x[1,4]    findWorstP[1,4]  1.4496543166105302e-01
    x[1,4]    findWorstP[2,1]  -9.8575602629656672e-02
    x[1,4]    findWorstP[3,1]  -2.3928087859184594e-01
    x[1,4]    findWorstP[4,1]  -2.4736037788274520e-01
    x[1,5]    allocateEach[5]  1
    x[1,5]    findWorstP[1,2]  0.0826094664066655
    x[1,5]    findWorstP[1,3]  0.0826094664066655
    x[1,5]    findWorstP[1,4]  0.0826094664066655
    x[1,5]    findWorstP[2,1]  -2.2936449963476990e-01
    x[1,5]    findWorstP[3,1]  -2.1573642244621635e-01
    x[1,5]    findWorstP[4,1]  -2.4927063073075853e-01
    x[2,1]    allocateEach[1]  1
    x[2,1]    findWorstP[1,2]  -4.7332033327424222e-02
    x[2,1]    findWorstP[2,1]  3.5354273192111024e-01
    x[2,1]    findWorstP[2,3]  3.5354273192111024e-01
    x[2,1]    findWorstP[2,4]  3.5354273192111024e-01
    x[2,1]    findWorstP[3,2]  -3.1029035655182793e-02
    x[2,1]    findWorstP[4,2]  -7.7452070019449846e-03
    x[2,2]    allocateEach[2]  1
    x[2,2]    findWorstP[1,2]  -4.0493706789576323e-01
    x[2,2]    findWorstP[2,1]  3.7801314828341849e-02
    x[2,2]    findWorstP[2,3]  3.7801314828341849e-02
    x[2,2]    findWorstP[2,4]  3.7801314828341849e-02
    x[2,2]    findWorstP[3,2]  -1.7274710395667217e-01
    x[2,2]    findWorstP[4,2]  -1.2868157821617116e-01
    x[2,3]    allocateEach[3]  1
    x[2,3]    findWorstP[1,2]  -2.0936004254564797e-01
    x[2,3]    findWorstP[2,1]  1.8940832724616505e-01
    x[2,3]    findWorstP[2,3]  1.8940832724616505e-01
    x[2,3]    findWorstP[2,4]  1.8940832724616505e-01
    x[2,3]    findWorstP[3,2]  -2.4717917857680158e-01
    x[2,3]    findWorstP[4,2]  -2.8011253125868296e-01
    x[2,4]    allocateEach[4]  1
    x[2,4]    findWorstP[1,2]  -1.4496543166105302e-01
    x[2,4]    findWorstP[2,1]  9.8575602629656672e-02
    x[2,4]    findWorstP[2,3]  9.8575602629656672e-02
    x[2,4]    findWorstP[2,4]  9.8575602629656672e-02
    x[2,4]    findWorstP[3,2]  -2.3928087859184594e-01
    x[2,4]    findWorstP[4,2]  -2.4736037788274520e-01
    x[2,5]    allocateEach[5]  1
    x[2,5]    findWorstP[1,2]  -0.0826094664066655
    x[2,5]    findWorstP[2,1]  2.2936449963476990e-01
    x[2,5]    findWorstP[2,3]  2.2936449963476990e-01
    x[2,5]    findWorstP[2,4]  2.2936449963476990e-01
    x[2,5]    findWorstP[3,2]  -2.1573642244621635e-01
    x[2,5]    findWorstP[4,2]  -2.4927063073075853e-01
    x[3,1]    allocateEach[1]  1
    x[3,1]    findWorstP[1,3]  -4.7332033327424222e-02
    x[3,1]    findWorstP[2,3]  -3.5354273192111024e-01
    x[3,1]    findWorstP[3,1]  3.1029035655182793e-02
    x[3,1]    findWorstP[3,2]  3.1029035655182793e-02
    x[3,1]    findWorstP[3,4]  3.1029035655182793e-02
    x[3,1]    findWorstP[4,3]  -7.7452070019449846e-03
    x[3,2]    allocateEach[2]  1
    x[3,2]    findWorstP[1,3]  -4.0493706789576323e-01
    x[3,2]    findWorstP[2,3]  -3.7801314828341849e-02
    x[3,2]    findWorstP[3,1]  1.7274710395667217e-01
    x[3,2]    findWorstP[3,2]  1.7274710395667217e-01
    x[3,2]    findWorstP[3,4]  1.7274710395667217e-01
    x[3,2]    findWorstP[4,3]  -1.2868157821617116e-01
    x[3,3]    allocateEach[3]  1
    x[3,3]    findWorstP[1,3]  -2.0936004254564797e-01
    x[3,3]    findWorstP[2,3]  -1.8940832724616505e-01
    x[3,3]    findWorstP[3,1]  2.4717917857680158e-01
    x[3,3]    findWorstP[3,2]  2.4717917857680158e-01
    x[3,3]    findWorstP[3,4]  2.4717917857680158e-01
    x[3,3]    findWorstP[4,3]  -2.8011253125868296e-01
    x[3,4]    allocateEach[4]  1
    x[3,4]    findWorstP[1,3]  -1.4496543166105302e-01
    x[3,4]    findWorstP[2,3]  -9.8575602629656672e-02
    x[3,4]    findWorstP[3,1]  2.3928087859184594e-01
    x[3,4]    findWorstP[3,2]  2.3928087859184594e-01
    x[3,4]    findWorstP[3,4]  2.3928087859184594e-01
    x[3,4]    findWorstP[4,3]  -2.4736037788274520e-01
    x[3,5]    allocateEach[5]  1
    x[3,5]    findWorstP[1,3]  -0.0826094664066655
    x[3,5]    findWorstP[2,3]  -2.2936449963476990e-01
    x[3,5]    findWorstP[3,1]  2.1573642244621635e-01
    x[3,5]    findWorstP[3,2]  2.1573642244621635e-01
    x[3,5]    findWorstP[3,4]  2.1573642244621635e-01
    x[3,5]    findWorstP[4,3]  -2.4927063073075853e-01
    x[4,1]    allocateEach[1]  1
    x[4,1]    findWorstP[1,4]  -4.7332033327424222e-02
    x[4,1]    findWorstP[2,4]  -3.5354273192111024e-01
    x[4,1]    findWorstP[3,4]  -3.1029035655182793e-02
    x[4,1]    findWorstP[4,1]  7.7452070019449846e-03
    x[4,1]    findWorstP[4,2]  7.7452070019449846e-03
    x[4,1]    findWorstP[4,3]  7.7452070019449846e-03
    x[4,2]    allocateEach[2]  1
    x[4,2]    findWorstP[1,4]  -4.0493706789576323e-01
    x[4,2]    findWorstP[2,4]  -3.7801314828341849e-02
    x[4,2]    findWorstP[3,4]  -1.7274710395667217e-01
    x[4,2]    findWorstP[4,1]  1.2868157821617116e-01
    x[4,2]    findWorstP[4,2]  1.2868157821617116e-01
    x[4,2]    findWorstP[4,3]  1.2868157821617116e-01
    x[4,3]    allocateEach[3]  1
    x[4,3]    findWorstP[1,4]  -2.0936004254564797e-01
    x[4,3]    findWorstP[2,4]  -1.8940832724616505e-01
    x[4,3]    findWorstP[3,4]  -2.4717917857680158e-01
    x[4,3]    findWorstP[4,1]  2.8011253125868296e-01
    x[4,3]    findWorstP[4,2]  2.8011253125868296e-01
    x[4,3]    findWorstP[4,3]  2.8011253125868296e-01
    x[4,4]    allocateEach[4]  1
    x[4,4]    findWorstP[1,4]  -1.4496543166105302e-01
    x[4,4]    findWorstP[2,4]  -9.8575602629656672e-02
    x[4,4]    findWorstP[3,4]  -2.3928087859184594e-01
    x[4,4]    findWorstP[4,1]  2.4736037788274520e-01
    x[4,4]    findWorstP[4,2]  2.4736037788274520e-01
    x[4,4]    findWorstP[4,3]  2.4736037788274520e-01
    x[4,5]    allocateEach[5]  1
    x[4,5]    findWorstP[1,4]  -0.0826094664066655
    x[4,5]    findWorstP[2,4]  -2.2936449963476990e-01
    x[4,5]    findWorstP[3,4]  -2.1573642244621635e-01
    x[4,5]    findWorstP[4,1]  2.4927063073075853e-01
    x[4,5]    findWorstP[4,2]  2.4927063073075853e-01
    x[4,5]    findWorstP[4,3]  2.4927063073075853e-01
    MARKER    'MARKER'                 'INTEND'
RHS
    RHS1      allocateEach[1]  1
    RHS1      allocateEach[2]  1
    RHS1      allocateEach[3]  1
    RHS1      allocateEach[4]  1
    RHS1      allocateEach[5]  1
    RHS1      allocateAllCash  1
BOUNDS
 UP BND1      z         1
 MI BND1      cashProportion[1]
 UP BND1      cashProportion[1]  1
 MI BND1      cashProportion[2]
 UP BND1      cashProportion[2]  1
 MI BND1      cashProportion[3]
 UP BND1      cashProportion[3]  1
 MI BND1      cashProportion[4]
 UP BND1      cashProportion[4]  1
 BV BND1      x[1,1]  
 BV BND1      x[1,2]  
 BV BND1      x[1,3]  
 BV BND1      x[1,4]  
 BV BND1      x[1,5]  
 BV BND1      x[2,1]  
 BV BND1      x[2,2]  
 BV BND1      x[2,3]  
 BV BND1      x[2,4]  
 BV BND1      x[2,5]  
 BV BND1      x[3,1]  
 BV BND1      x[3,2]  
 BV BND1      x[3,3]  
 BV BND1      x[3,4]  
 BV BND1      x[3,5]  
 BV BND1      x[4,1]  
 BV BND1      x[4,2]  
 BV BND1      x[4,3]  
 BV BND1      x[4,4]  
 BV BND1      x[4,5]  
ENDATA
